\ENCODING=ISO-8859-1
\Problem name: districting

Maximize
 obj1: 22491 b_0_0_2 + 40869 b_0_0_5 + 34479 b_0_0_7 + 4541 b_0_0_10
       + 22924 b_0_0_12 + 20812 b_0_1_3 + 19962 b_0_1_6 + 21579 b_0_1_10
       + 27281 b_0_1_13 + 22491 b_0_2_0 + 26112 b_0_2_7 + 55215 b_0_2_12
       + 40859 b_0_2_14 + 20812 b_0_3_1 + 18829 b_0_3_6 + 4750 b_0_4_5
       + 20582 b_0_4_9 + 52723 b_0_4_11 + 16746 b_0_4_13 + 40869 b_0_5_0
       + 4750 b_0_5_4 + 18221 b_0_5_8 + 5849 b_0_5_10 + 29219 b_0_5_11
       + 9670 b_0_5_12 + 39375 b_0_5_13 + 19962 b_0_6_1 + 18829 b_0_6_3
       + 33450 b_0_6_10 + 34479 b_0_7_0 + 26112 b_0_7_2 + 25919 b_0_7_10
       + 26789 b_0_7_14 + 18221 b_0_8_5 + 33164 b_0_8_11 + 11199 b_0_8_12
       + 20582 b_0_9_4 + 25094 b_0_9_13 + 4541 b_0_10_0 + 21579 b_0_10_1
       + 5849 b_0_10_5 + 33450 b_0_10_6 + 25919 b_0_10_7 + 11246 b_0_10_13
       + 52723 b_0_11_4 + 29219 b_0_11_5 + 33164 b_0_11_8 + 22924 b_0_12_0
       + 55215 b_0_12_2 + 9670 b_0_12_5 + 11199 b_0_12_8 + 27281 b_0_13_1
       + 16746 b_0_13_4 + 39375 b_0_13_5 + 25094 b_0_13_9 + 11246 b_0_13_10
       + 40859 b_0_14_2 + 26789 b_0_14_7
Subject To
 c1:  x_0_0  = 1
 c2:  x_0_1  = 1
 c3:  x_0_2  = 1
 c4:  x_0_3  = 1
 c5:  x_0_4  = 1
 c6:  x_0_5  = 1
 c7:  x_0_6  = 1
 c8:  x_0_7  = 1
 c9:  x_0_8  = 1
 c10: x_0_9  = 1
 c11: x_0_10  = 1
 c12: x_0_11  = 1
 c13: x_0_12  = 1
 c14: x_0_13  = 1
 c15: x_0_14  = 1
 c16: x_0_0 >= 1
 c17: x_0_1 >= 1
 c18: x_0_2 >= 1
 c19: x_0_3 >= 1
 c20: x_0_4 >= 1
 c21: x_0_5 >= 1
 c22: x_0_6 >= 1
 c23: x_0_7 >= 1
 c24: x_0_8 >= 1
 c25: x_0_9 >= 1
 c26: x_0_10 >= 1
 c27: x_0_11 >= 1
 c28: x_0_12 >= 1
 c29: x_0_13 >= 1
 c30: x_0_14 >= 1
 c31: x_0_0 + x_0_1 + x_0_2 + x_0_3 + x_0_4 + x_0_5 + x_0_6 + x_0_7 + x_0_8
      + x_0_9 + x_0_10 + x_0_11 + x_0_12 + x_0_13 + x_0_14 >= 1
 c32: 2739 x_0_0 + 2561 x_0_1 + 3486 x_0_2 + 7166 x_0_3 + 2752 x_0_4
      + 3052 x_0_5 + 19082 x_0_6 + 2691 x_0_7 + 3277 x_0_8 + 2765 x_0_9
      + 2584 x_0_10 + 5869 x_0_11 + 14056 x_0_12 + 20376 x_0_13 + 3935 x_0_14
      <= 110849.65
 c33: 2739 x_0_0 + 2561 x_0_1 + 3486 x_0_2 + 7166 x_0_3 + 2752 x_0_4
      + 3052 x_0_5 + 19082 x_0_6 + 2691 x_0_7 + 3277 x_0_8 + 2765 x_0_9
      + 2584 x_0_10 + 5869 x_0_11 + 14056 x_0_12 + 20376 x_0_13 + 3935 x_0_14
      >= 81932.35
 c34: - x_0_0 + b_0_0_2 + b_0_0_5 + b_0_0_7 + b_0_0_10 + b_0_0_12 >= 0
 c35: - x_0_1 + b_0_1_3 + b_0_1_6 + b_0_1_10 + b_0_1_13 >= 0
 c36: - x_0_2 + b_0_2_0 + b_0_2_7 + b_0_2_12 + b_0_2_14 >= 0
 c37: - x_0_3 + b_0_3_1 + b_0_3_6 >= 0
 c38: - x_0_4 + b_0_4_5 + b_0_4_9 + b_0_4_11 + b_0_4_13 >= 0
 c39: - x_0_5 + b_0_5_0 + b_0_5_4 + b_0_5_8 + b_0_5_10 + b_0_5_11 + b_0_5_12
      + b_0_5_13 >= 0
 c40: - x_0_6 + b_0_6_1 + b_0_6_3 + b_0_6_10 >= 0
 c41: - x_0_7 + b_0_7_0 + b_0_7_2 + b_0_7_10 + b_0_7_14 >= 0
 c42: - x_0_8 + b_0_8_5 + b_0_8_11 + b_0_8_12 >= 0
 c43: - x_0_9 + b_0_9_4 + b_0_9_13 >= 0
 c44: - x_0_10 + b_0_10_0 + b_0_10_1 + b_0_10_5 + b_0_10_6 + b_0_10_7
      + b_0_10_13 >= 0
 c45: - x_0_11 + b_0_11_4 + b_0_11_5 + b_0_11_8 >= 0
 c46: - x_0_12 + b_0_12_0 + b_0_12_2 + b_0_12_5 + b_0_12_8 >= 0
 c47: - x_0_13 + b_0_13_1 + b_0_13_4 + b_0_13_5 + b_0_13_9 + b_0_13_10 >= 0
 c48: - x_0_14 + b_0_14_2 + b_0_14_7 >= 0
Bounds
 0 <= x_0_0 <= 1
 0 <= x_0_1 <= 1
 0 <= x_0_2 <= 1
 0 <= x_0_3 <= 1
 0 <= x_0_4 <= 1
 0 <= x_0_5 <= 1
 0 <= x_0_6 <= 1
 0 <= x_0_7 <= 1
 0 <= x_0_8 <= 1
 0 <= x_0_9 <= 1
 0 <= x_0_10 <= 1
 0 <= x_0_11 <= 1
 0 <= x_0_12 <= 1
 0 <= x_0_13 <= 1
 0 <= x_0_14 <= 1
 0 <= b_0_0_2 <= 1
 0 <= b_0_0_5 <= 1
 0 <= b_0_0_7 <= 1
 0 <= b_0_0_10 <= 1
 0 <= b_0_0_12 <= 1
 0 <= b_0_1_3 <= 1
 0 <= b_0_1_6 <= 1
 0 <= b_0_1_10 <= 1
 0 <= b_0_1_13 <= 1
 0 <= b_0_2_0 <= 1
 0 <= b_0_2_7 <= 1
 0 <= b_0_2_12 <= 1
 0 <= b_0_2_14 <= 1
 0 <= b_0_3_1 <= 1
 0 <= b_0_3_6 <= 1
 0 <= b_0_4_5 <= 1
 0 <= b_0_4_9 <= 1
 0 <= b_0_4_11 <= 1
 0 <= b_0_4_13 <= 1
 0 <= b_0_5_0 <= 1
 0 <= b_0_5_4 <= 1
 0 <= b_0_5_8 <= 1
 0 <= b_0_5_10 <= 1
 0 <= b_0_5_11 <= 1
 0 <= b_0_5_12 <= 1
 0 <= b_0_5_13 <= 1
 0 <= b_0_6_1 <= 1
 0 <= b_0_6_3 <= 1
 0 <= b_0_6_10 <= 1
 0 <= b_0_7_0 <= 1
 0 <= b_0_7_2 <= 1
 0 <= b_0_7_10 <= 1
 0 <= b_0_7_14 <= 1
 0 <= b_0_8_5 <= 1
 0 <= b_0_8_11 <= 1
 0 <= b_0_8_12 <= 1
 0 <= b_0_9_4 <= 1
 0 <= b_0_9_13 <= 1
 0 <= b_0_10_0 <= 1
 0 <= b_0_10_1 <= 1
 0 <= b_0_10_5 <= 1
 0 <= b_0_10_6 <= 1
 0 <= b_0_10_7 <= 1
 0 <= b_0_10_13 <= 1
 0 <= b_0_11_4 <= 1
 0 <= b_0_11_5 <= 1
 0 <= b_0_11_8 <= 1
 0 <= b_0_12_0 <= 1
 0 <= b_0_12_2 <= 1
 0 <= b_0_12_5 <= 1
 0 <= b_0_12_8 <= 1
 0 <= b_0_13_1 <= 1
 0 <= b_0_13_4 <= 1
 0 <= b_0_13_5 <= 1
 0 <= b_0_13_9 <= 1
 0 <= b_0_13_10 <= 1
 0 <= b_0_14_2 <= 1
 0 <= b_0_14_7 <= 1
Binaries
 x_0_0  x_0_1  x_0_2  x_0_3  x_0_4  x_0_5  x_0_6  x_0_7  x_0_8  x_0_9  x_0_10 
 x_0_11  x_0_12  x_0_13  x_0_14  b_0_0_2  b_0_0_5  b_0_0_7  b_0_0_10  b_0_0_12 
 b_0_1_3  b_0_1_6  b_0_1_10  b_0_1_13  b_0_2_0  b_0_2_7  b_0_2_12  b_0_2_14 
 b_0_3_1  b_0_3_6  b_0_4_5  b_0_4_9  b_0_4_11  b_0_4_13  b_0_5_0  b_0_5_4 
 b_0_5_8  b_0_5_10  b_0_5_11  b_0_5_12  b_0_5_13  b_0_6_1  b_0_6_3  b_0_6_10 
 b_0_7_0  b_0_7_2  b_0_7_10  b_0_7_14  b_0_8_5  b_0_8_11  b_0_8_12  b_0_9_4 
 b_0_9_13  b_0_10_0  b_0_10_1  b_0_10_5  b_0_10_6  b_0_10_7  b_0_10_13 
 b_0_11_4  b_0_11_5  b_0_11_8  b_0_12_0  b_0_12_2  b_0_12_5  b_0_12_8 
 b_0_13_1  b_0_13_4  b_0_13_5  b_0_13_9  b_0_13_10  b_0_14_2  b_0_14_7 
End
